
******************************************************************************
This program contains Ipopt, a library for large-scale nonlinear optimization.
 Ipopt is released as open source code under the Eclipse Public License (EPL).
         For more information visit http://projects.coin-or.org/Ipopt
******************************************************************************

This is Ipopt version 3.12.3, running with linear solver mumps.
NOTE: Other linear solvers might be more efficient (see Ipopt documentation).

Number of nonzeros in equality constraint Jacobian...:   293798
Number of nonzeros in inequality constraint Jacobian.:    61856
Number of nonzeros in Lagrangian Hessian.............:    73982

Total number of variables............................:    61856
                     variables with only lower bounds:        0
                variables with lower and upper bounds:        0
                     variables with only upper bounds:        0
Total number of equality constraints.................:    55664
Total number of inequality constraints...............:    61856
        inequality constraints with only lower bounds:        0
   inequality constraints with lower and upper bounds:    61856
        inequality constraints with only upper bounds:        0

iter    objective    inf_pr   inf_du lg(mu)  ||d||  lg(rg) alpha_du alpha_pr  ls
   0 8.5999714e-001 5.98e-001 2.46e-003  -1.0 0.00e+000    -  0.00e+000 0.00e+000   0
   1 3.5109477e+001 7.82e+000 1.56e+000  -1.0 2.07e-001    -  4.22e-001 1.00e+000f  1
   2 5.8836968e+001 1.08e+000 2.90e+000  -1.0 3.06e-001   0.0 5.74e-001 1.00e+000f  1
   3 6.8543858e+001 2.79e-001 5.16e-001  -1.0 1.08e-001   0.4 1.00e+000 1.00e+000f  1
   4 5.7571097e+001 8.17e-002 4.12e-001  -1.7 4.19e-002   0.9 1.00e+000 1.00e+000f  1
   5 4.0229657e+001 2.38e-001 1.82e-001  -1.7 6.76e-002   0.4 1.00e+000 1.00e+000f  1
   6 1.9791442e+001 5.50e-001 2.83e-001  -2.5 1.16e-001  -0.1 1.00e+000 1.00e+000f  1
   7 1.0483528e+001 2.73e-001 1.03e-001  -2.5 1.20e-001  -0.6 1.00e+000 1.00e+000f  1
   8 8.0414704e+000 2.14e-001 9.77e-002  -2.5 1.67e-001  -1.1 1.00e+000 1.00e+000f  1
   9 7.9200878e+000 1.90e-002 9.48e-003  -2.5 3.82e-002  -0.6 1.00e+000 1.00e+000h  1
iter    objective    inf_pr   inf_du lg(mu)  ||d||  lg(rg) alpha_du alpha_pr  ls
  10 6.4531101e+000 1.23e-001 1.05e-002  -3.8 5.93e-002  -1.1 9.82e-001 1.00e+000f  1
  11 5.5366232e+000 1.10e-001 1.02e-002  -3.8 6.48e-002  -1.6 1.00e+000 1.00e+000h  1
  12 5.3074261e+000 1.00e-002 1.67e-003  -3.8 2.41e-002  -1.2 1.00e+000 1.00e+000h  1
  13 4.7976669e+000 5.49e-002 1.35e-003  -3.8 5.86e-002  -1.6 1.00e+000 1.00e+000h  1
  14 3.8683211e+000 2.85e-001 7.12e-003  -3.8 1.81e-001  -2.1 1.00e+000 1.00e+000h  1
  15 3.6111046e+000 3.73e-002 2.70e-003  -3.8 4.31e-002  -1.7 1.00e+000 1.00e+000h  1
  16 3.1590208e+000 8.32e-002 1.11e-002  -3.8 6.85e-002  -2.2 1.00e+000 1.00e+000h  1
  17 3.0345422e+000 8.75e-003 3.78e-004  -3.8 2.07e-002  -1.7 1.00e+000 1.00e+000h  1
  18 2.2206097e+000 2.45e-001 3.76e-003  -5.7 7.38e-002  -2.2 8.39e-001 1.00e+000f  1
  19 1.9152807e+000 7.95e-002 1.14e-003  -5.7 4.01e-002  -1.8 9.69e-001 1.00e+000h  1
iter    objective    inf_pr   inf_du lg(mu)  ||d||  lg(rg) alpha_du alpha_pr  ls
  20 1.6758295e+000 9.54e-002 1.19e-003  -5.7 7.60e-002  -2.3 1.00e+000 4.09e-001h  1
  21 1.3720527e+000 4.01e-001 2.49e-003  -5.7 3.64e-001  -2.7 8.31e-001 3.78e-001h  1
  22 1.2821278e+000 2.84e-001 3.99e-003  -5.7 7.32e-002  -2.3 1.00e+000 2.99e-001h  1
  23 1.1281286e+000 2.38e-001 3.71e-003  -5.7 1.36e-001  -2.8 8.79e-001 3.75e-001h  1
  24 1.0667919e+000 1.47e-001 3.31e-003  -5.7 5.14e-002  -2.4 1.00e+000 4.09e-001h  1
  25 1.0010038e+000 1.21e-001 3.20e-003  -5.7 1.04e-001  -2.8 8.24e-001 3.77e-001h  1
  26 9.5831428e-001 5.02e-002 1.38e-003  -5.7 4.76e-002  -2.4 1.00e+000 6.75e-001h  1
  27 9.3051249e-001 6.36e-002 1.29e-003  -5.7 9.04e-002  -2.9 1.00e+000 5.16e-001h  1
  28 9.1925813e-001 1.71e-001 1.64e-003  -5.7 1.85e-001  -3.4 1.00e+000 3.61e-001h  1
  29 9.0926799e-001 1.30e-001 7.67e-004  -5.7 6.32e-002  -2.9 1.00e+000 7.66e-001h  1
iter    objective    inf_pr   inf_du lg(mu)  ||d||  lg(rg) alpha_du alpha_pr  ls
  30 9.0620236e-001 2.62e-001 1.20e-003  -5.7 1.43e-001  -3.4 6.91e-001 5.38e-001h  1
  31 9.0618907e-001 2.61e-001 1.20e-003  -5.7 1.51e+003  -3.9 9.17e-005 7.03e-005h  2
  32 9.0460835e-001 1.46e-002 1.42e-004  -5.7 2.99e-002  -2.6 1.00e+000 1.00e+000h  1
  33 9.0391575e-001 3.19e-001 5.25e-003  -5.7 2.27e-001  -3.1 8.30e-001 6.91e-001h  1
  34 9.0353707e-001 2.36e-001 3.29e-003  -5.7 2.20e-001  -3.5 7.80e-001 4.74e-001h  1
  35 9.0334385e-001 7.13e-001 2.51e-003  -5.7 4.31e-001  -4.0 1.00e+000 2.58e-001h  1
  36 9.0331922e-001 9.22e-001 2.51e-003  -5.7 2.84e+001  -3.6 2.80e-003 1.78e-003h  2
  37 9.0305150e-001 1.14e+000 1.37e-003  -5.7 2.18e-001  -4.1 1.00e+000 4.71e-001h  1
  38 9.0292826e-001 8.99e-001 1.86e-003  -5.7 3.49e-001  -4.5 1.00e+000 3.08e-001h  1
  39 9.0280478e-001 7.40e-001 1.38e-003  -5.7 3.02e-001  -5.0 8.14e-001 5.03e-001h  1
iter    objective    inf_pr   inf_du lg(mu)  ||d||  lg(rg) alpha_du alpha_pr  ls
  40 9.0273638e-001 1.34e-002 2.58e-004  -5.7 5.55e-002  -3.7 1.00e+000 1.00e+000h  1
  41 9.0272353e-001 1.01e-003 3.14e-005  -5.7 3.90e-002  -3.3 1.00e+000 1.00e+000h  1
  42 9.0269681e-001 9.11e-003 1.17e-004  -5.7 1.57e-001  -3.7 1.00e+000 1.00e+000h  1
  43 9.0264744e-001 2.26e-001 1.56e-003  -5.7 1.47e-001    -  1.00e+000 1.00e+000h  1
  44 9.0267457e-001 1.60e-001 2.48e-003  -5.7 2.03e-001    -  1.00e+000 1.00e+000H  1
  45 9.0263442e-001 2.54e-001 1.52e-003  -5.7 2.44e-001    -  1.00e+000 1.00e+000H  1
  46 9.0265192e-001 3.19e-003 6.95e-005  -5.7 4.88e-002    -  1.00e+000 1.00e+000h  1
  47 9.0263149e-001 4.28e-002 3.15e-004  -5.7 1.05e-001    -  1.00e+000 1.00e+000H  1
  48 9.0263516e-001 1.58e-004 3.79e-006  -5.7 8.34e-003    -  1.00e+000 1.00e+000h  1
  49 9.0263455e-001 9.56e-005 6.24e-007  -5.7 2.69e-003    -  1.00e+000 1.00e+000h  1
iter    objective    inf_pr   inf_du lg(mu)  ||d||  lg(rg) alpha_du alpha_pr  ls
  50 8.9972617e-001 2.81e-001 1.55e-003  -7.0 1.27e+000    -  1.90e-001 1.25e-001h  1
  51 8.8795337e-001 2.48e-001 1.25e-003  -7.0 2.60e-001    -  6.91e-001 6.10e-001h  1
  52 8.8720333e-001 2.32e-001 1.14e-003  -7.0 2.88e+000    -  4.12e-002 8.97e-002h  1
  53 8.8479486e-001 2.27e-001 2.01e-003  -7.0 3.70e-001    -  6.74e-001 3.10e-001h  1
  54 8.8129141e-001 8.55e-002 1.56e-003  -7.0 2.94e-001    -  9.95e-002 6.63e-001h  1
  55 8.7994799e-001 2.01e-002 2.81e-003  -7.0 1.31e-001    -  3.59e-001 7.83e-001f  1
  56 8.7954588e-001 3.64e-004 4.57e-003  -7.0 7.62e-003    -  2.37e-001 1.00e+000f  1
  57 8.7952371e-001 3.40e-005 1.85e-006  -7.0 2.12e-002    -  1.00e+000 1.00e+000h  1
  58 8.7952064e-001 1.66e-006 2.04e-008  -7.0 2.33e-003    -  1.00e+000 1.00e+000h  1

Number of Iterations....: 58

                                   (scaled)                 (unscaled)
Objective...............:  8.7952063582385109e-001   8.7952063582385109e-001
Dual infeasibility......:  2.0375525588127051e-008   2.0375525588127051e-008
Constraint violation....:  6.2672645717923303e-007   1.6575221537529217e-006
Complementarity.........:  9.7038067281357151e-008   9.7038067281357151e-008
Overall NLP error.......:  6.2672645717923303e-007   1.6575221537529217e-006


Number of objective function evaluations             = 66
Number of objective gradient evaluations             = 59
Number of equality constraint evaluations            = 66
Number of inequality constraint evaluations          = 66
Number of equality constraint Jacobian evaluations   = 59
Number of inequality constraint Jacobian evaluations = 59
Number of Lagrangian Hessian evaluations             = 58
Total CPU secs in IPOPT (w/o function evaluations)   =     35.424
Total CPU secs in NLP function evaluations           =      5.132

EXIT: Optimal Solution Found.
               t_proc [s]   t_wall [s]    n_eval
       nlp_f         0.03       0.0313        66
       nlp_g        0.378        0.375        66
  nlp_grad_f        0.108        0.109        60
  nlp_hess_l         2.05         2.05        58
   nlp_jac_g         2.53         2.53        60
      solver         40.6         40.6         1
